Hamiltonian = DFTB {
  SCC = Yes
  #ReadInitialCharges = Yes
  MaxAngularMomentum {
    Cu = 'd'
  }

  SlaterKosterFiles = Type2FileNames{
    Prefix = "../../slakos/download/matsci/matsci-0-3/"
    Separator = "-"
    Suffix = ".skf"
  }

  Filling = Fermi{
    Temperature [Kelvin] = 300
  }

  KpointsAndWeights = SupercellFolding {
     8  0   0
     0   1   0
     0   0   1
     0.5 0 0
  }
 Solver = DivideAndConquer{}
}

Parallel = {
 UseOMPThreads = Yes
}
